7958
15, 5, 24, 48, 38, 37, 40, 39, 34, 35, 36, 49, 32, 1, 22, 18, 31, 23, 20, 50, 30, 2, 7, 42, 21, 17, 3, 45, 19, 41, 8, 9, 10, 43, 33, 51, 12, 11, 52, 14, 13, 27, 28, 26, 47, 29, 16, 44, 46, 25, 4, 6
